102891
57,8,76,19,66,75,25,35,65,70,20,53,45,44,79,61,69,13,28,9,0,63,72,12,36,17,47,4,18,23,30,64,49,3,62,38,51,40,77,68,24,14,60,5,78,27,7,82,52,58,67,43,21,81,74,10,32,26,15,37,34,29,1,41,22,54,42,11,2,56,33,48,46,59,80,71,50,6,55,16,73,39,31
